c colouring generated by benchmark framework
p edge 989 48461
v 1 18
v 2 5
v 3 8
v 4 4
v 5 15
v 6 11
v 7 18
v 8 9
v 9 24
v 10 1
v 11 31
v 12 16
v 13 25
v 14 32
v 15 17
v 16 14
v 17 22
v 18 21
v 19 34
v 20 13
v 21 14
v 22 30
v 23 12
v 24 8
v 25 0
v 26 14
v 27 19
v 28 19
v 29 12
v 30 8
v 31 26
v 32 33
v 33 25
v 34 31
v 35 35
v 36 20
v 37 20
v 38 21
v 39 19
v 40 7
v 41 4
v 42 23
v 43 24
v 44 24
v 45 19
v 46 6
v 47 22
v 48 29
v 49 2
v 50 36
v 51 28
v 52 2
v 53 10
v 54 32
v 55 7
v 56 5
v 57 10
v 58 27
v 59 29
v 60 3
v 61 5
v 62 13
v 63 9
v 64 16
v 65 15
v 66 34
v 67 3
v 68 11
v 69 27
v 70 11
v 71 18
v 72 17
v 73 21
v 74 6
v 75 9
v 76 16
v 77 4
v 78 27
v 79 14
v 80 1
v 81 32
v 82 14
v 83 15
v 84 14
v 85 0
v 86 11
v 87 6
v 88 25
v 89 12
v 90 18
v 91 1
v 92 0
v 93 20
v 94 13
v 95 23
v 96 17
v 97 8
v 98 7
v 99 1
v 100 4
v 101 23
v 102 8
v 103 24
v 104 26
v 105 25
v 106 6
v 107 0
v 108 36
v 109 2
v 110 20
v 111 29
v 112 12
v 113 19
v 114 22
v 115 33
v 116 24
v 117 13
v 118 8
v 119 8
v 120 22
v 121 3
v 122 19
v 123 13
v 124 30
v 125 26
v 126 10
v 127 9
v 128 29
v 129 27
v 130 11
v 131 9
v 132 16
v 133 31
v 134 21
v 135 2
v 136 4
v 137 15
v 138 7
v 139 5
v 140 28
v 141 12
v 142 34
v 143 23
v 144 2
v 145 28
v 146 17
v 147 14
v 148 11
v 149 5
v 150 15
v 151 30
v 152 7
v 153 3
v 154 37
v 155 10
v 156 35
v 157 0
v 158 17
v 159 36
v 160 16
v 161 2
v 162 14
v 163 32
v 164 3
v 165 5
v 166 33
v 167 20
v 168 27
v 169 8
v 170 37
v 171 6
v 172 6
v 173 22
v 174 18
v 175 22
v 176 8
v 177 26
v 178 1
v 179 25
v 180 19
v 181 13
v 182 10
v 183 8
v 184 33
v 185 32
v 186 15
v 187 24
v 188 31
v 189 9
v 190 34
v 191 21
v 192 28
v 193 3
v 194 13
v 195 35
v 196 28
v 197 30
v 198 4
v 199 12
v 200 26
v 201 12
v 202 15
v 203 23
v 204 21
v 205 7
v 206 20
v 207 23
v 208 13
v 209 19
v 210 29
v 211 25
v 212 7
v 213 14
v 214 11
v 215 10
v 216 3
v 217 0
v 218 25
v 219 5
v 220 11
v 221 11
v 222 12
v 223 12
v 224 0
v 225 20
v 226 6
v 227 2
v 228 18
v 229 14
v 230 19
v 231 1
v 232 17
v 233 16
v 234 9
v 235 22
v 236 17
v 237 0
v 238 13
v 239 33
v 240 17
v 241 18
v 242 7
v 243 1
v 244 2
v 245 24
v 246 22
v 247 34
v 248 36
v 249 15
v 250 8
v 251 8
v 252 4
v 253 24
v 254 16
v 255 21
v 256 4
v 257 31
v 258 18
v 259 29
v 260 28
v 261 2
v 262 23
v 263 21
v 264 19
v 265 13
v 266 26
v 267 4
v 268 19
v 269 10
v 270 14
v 271 29
v 272 5
v 273 3
v 274 7
v 275 20
v 276 9
v 277 20
v 278 23
v 279 3
v 280 27
v 281 30
v 282 21
v 283 25
v 284 35
v 285 32
v 286 6
v 287 8
v 288 12
v 289 26
v 290 33
v 291 10
v 292 37
v 293 5
v 294 27
v 295 30
v 296 0
v 297 11
v 298 17
v 299 22
v 300 6
v 301 1
v 302 24
v 303 18
v 304 5
v 305 36
v 306 16
v 307 8
v 308 19
v 309 0
v 310 9
v 311 2
v 312 4
v 313 31
v 314 34
v 315 18
v 316 1
v 317 1
v 318 13
v 319 28
v 320 15
v 321 22
v 322 11
v 323 19
v 324 12
v 325 29
v 326 5
v 327 3
v 328 13
v 329 21
v 330 16
v 331 9
v 332 3
v 333 15
v 334 4
v 335 24
v 336 20
v 337 24
v 338 20
v 339 7
v 340 7
v 341 35
v 342 13
v 343 33
v 344 32
v 345 2
v 346 25
v 347 8
v 348 7
v 349 14
v 350 12
v 351 33
v 352 21
v 353 6
v 354 0
v 355 23
v 356 17
v 357 35
v 358 23
v 359 9
v 360 31
v 361 11
v 362 23
v 363 14
v 364 32
v 365 37
v 366 26
v 367 17
v 368 13
v 369 1
v 370 10
v 371 37
v 372 15
v 373 22
v 374 17
v 375 2
v 376 6
v 377 34
v 378 36
v 379 10
v 380 29
v 381 5
v 382 4
v 383 2
v 384 19
v 385 18
v 386 22
v 387 0
v 388 15
v 389 4
v 390 24
v 391 3
v 392 22
v 393 16
v 394 5
v 395 28
v 396 3
v 397 19
v 398 26
v 399 29
v 400 27
v 401 8
v 402 8
v 403 24
v 404 21
v 405 20
v 406 8
v 407 12
v 408 18
v 409 26
v 410 30
v 411 35
v 412 9
v 413 16
v 414 25
v 415 23
v 416 9
v 417 7
v 418 12
v 419 27
v 420 32
v 421 21
v 422 12
v 423 9
v 424 1
v 425 17
v 426 7
v 427 11
v 428 17
v 429 13
v 430 14
v 431 28
v 432 11
v 433 15
v 434 20
v 435 32
v 436 10
v 437 11
v 438 20
v 439 10
v 440 29
v 441 0
v 442 12
v 443 29
v 444 36
v 445 14
v 446 31
v 447 4
v 448 2
v 449 13
v 450 6
v 451 34
v 452 14
v 453 11
v 454 18
v 455 34
v 456 24
v 457 8
v 458 3
v 459 8
v 460 26
v 461 1
v 462 0
v 463 27
v 464 3
v 465 6
v 466 22
v 467 28
v 468 19
v 469 23
v 470 16
v 471 33
v 472 35
v 473 19
v 474 5
v 475 18
v 476 25
v 477 23
v 478 27
v 479 30
v 480 32
v 481 14
v 482 12
v 483 2
v 484 18
v 485 8
v 486 9
v 487 4
v 488 10
v 489 4
v 490 20
v 491 17
v 492 28
v 493 0
v 494 12
v 495 7
v 496 31
v 497 31
v 498 24
v 499 15
v 500 2
v 501 17
v 502 15
v 503 29
v 504 14
v 505 24
v 506 13
v 507 29
v 508 1
v 509 20
v 510 18
v 511 21
v 512 13
v 513 9
v 514 17
v 515 27
v 516 6
v 517 11
v 518 33
v 519 22
v 520 30
v 521 1
v 522 3
v 523 33
v 524 20
v 525 11
v 526 0
v 527 5
v 528 36
v 529 23
v 530 19
v 531 22
v 532 13
v 533 19
v 534 32
v 535 14
v 536 7
v 537 25
v 538 30
v 539 10
v 540 4
v 541 3
v 542 30
v 543 26
v 544 21
v 545 28
v 546 26
v 547 16
v 548 4
v 549 23
v 550 5
v 551 29
v 552 32
v 553 0
v 554 35
v 555 24
v 556 31
v 557 16
v 558 8
v 559 16
v 560 14
v 561 2
v 562 2
v 563 34
v 564 9
v 565 12
v 566 18
v 567 15
v 568 29
v 569 17
v 570 12
v 571 24
v 572 17
v 573 25
v 574 12
v 575 31
v 576 6
v 577 0
v 578 26
v 579 19
v 580 4
v 581 6
v 582 33
v 583 14
v 584 2
v 585 9
v 586 22
v 587 11
v 588 3
v 589 31
v 590 27
v 591 13
v 592 10
v 593 3
v 594 22
v 595 30
v 596 1
v 597 10
v 598 21
v 599 20
v 600 28
v 601 6
v 602 1
v 603 11
v 604 22
v 605 10
v 606 5
v 607 11
v 608 23
v 609 7
v 610 15
v 611 21
v 612 16
v 613 19
v 614 20
v 615 5
v 616 17
v 617 5
v 618 23
v 619 29
v 620 16
v 621 20
v 622 24
v 623 12
v 624 13
v 625 4
v 626 35
v 627 2
v 628 18
v 629 29
v 630 7
v 631 13
v 632 18
v 633 0
v 634 12
v 635 33
v 636 6
v 637 14
v 638 4
v 639 35
v 640 3
v 641 9
v 642 19
v 643 24
v 644 8
v 645 8
v 646 27
v 647 34
v 648 22
v 649 31
v 650 14
v 651 36
v 652 14
v 653 26
v 654 17
v 655 1
v 656 6
v 657 25
v 658 0
v 659 28
v 660 15
v 661 31
v 662 10
v 663 6
v 664 3
v 665 0
v 666 15
v 667 21
v 668 21
v 669 0
v 670 5
v 671 15
v 672 3
v 673 20
v 674 29
v 675 30
v 676 7
v 677 2
v 678 5
v 679 4
v 680 36
v 681 2
v 682 7
v 683 16
v 684 9
v 685 17
v 686 8
v 687 14
v 688 19
v 689 12
v 690 23
v 691 13
v 692 11
v 693 4
v 694 24
v 695 18
v 696 30
v 697 25
v 698 24
v 699 12
v 700 27
v 701 9
v 702 22
v 703 1
v 704 16
v 705 7
v 706 17
v 707 27
v 708 33
v 709 9
v 710 32
v 711 29
v 712 19
v 713 13
v 714 26
v 715 25
v 716 26
v 717 36
v 718 28
v 719 19
v 720 20
v 721 28
v 722 3
v 723 0
v 724 3
v 725 21
v 726 31
v 727 5
v 728 0
v 729 10
v 730 22
v 731 15
v 732 2
v 733 15
v 734 29
v 735 8
v 736 33
v 737 25
v 738 21
v 739 10
v 740 34
v 741 30
v 742 12
v 743 14
v 744 11
v 745 4
v 746 10
v 747 18
v 748 6
v 749 14
v 750 23
v 751 6
v 752 11
v 753 16
v 754 30
v 755 4
v 756 24
v 757 36
v 758 1
v 759 34
v 760 18
v 761 16
v 762 27
v 763 22
v 764 13
v 765 17
v 766 17
v 767 32
v 768 15
v 769 13
v 770 9
v 771 6
v 772 18
v 773 7
v 774 27
v 775 8
v 776 1
v 777 35
v 778 20
v 779 29
v 780 32
v 781 0
v 782 18
v 783 28
v 784 35
v 785 28
v 786 5
v 787 1
v 788 9
v 789 7
v 790 21
v 791 2
v 792 26
v 793 20
v 794 5
v 795 2
v 796 3
v 797 12
v 798 26
v 799 10
v 800 29
v 801 4
v 802 14
v 803 0
v 804 16
v 805 15
v 806 30
v 807 31
v 808 12
v 809 19
v 810 37
v 811 33
v 812 4
v 813 11
v 814 21
v 815 10
v 816 24
v 817 14
v 818 25
v 819 25
v 820 32
v 821 11
v 822 16
v 823 23
v 824 13
v 825 3
v 826 15
v 827 28
v 828 25
v 829 9
v 830 36
v 831 13
v 832 9
v 833 6
v 834 34
v 835 19
v 836 17
v 837 6
v 838 24
v 839 22
v 840 1
v 841 4
v 842 27
v 843 2
v 844 5
v 845 16
v 846 19
v 847 8
v 848 26
v 849 32
v 850 5
v 851 7
v 852 1
v 853 0
v 854 20
v 855 22
v 856 6
v 857 15
v 858 31
v 859 31
v 860 8
v 861 18
v 862 0
v 863 29
v 864 12
v 865 35
v 866 36
v 867 21
v 868 21
v 869 14
v 870 14
v 871 33
v 872 33
v 873 14
v 874 13
v 875 20
v 876 11
v 877 12
v 878 3
v 879 2
v 880 11
v 881 7
v 882 15
v 883 27
v 884 15
v 885 30
v 886 25
v 887 17
v 888 12
v 889 28
v 890 24
v 891 26
v 892 10
v 893 28
v 894 11
v 895 18
v 896 4
v 897 29
v 898 19
v 899 9
v 900 10
v 901 9
v 902 37
v 903 23
v 904 32
v 905 11
v 906 8
v 907 2
v 908 10
v 909 5
v 910 1
v 911 8
v 912 22
v 913 6
v 914 25
v 915 26
v 916 27
v 917 16
v 918 5
v 919 37
v 920 4
v 921 34
v 922 32
v 923 19
v 924 27
v 925 35
v 926 13
v 927 0
v 928 13
v 929 31
v 930 20
v 931 34
v 932 3
v 933 17
v 934 0
v 935 16
v 936 0
v 937 30
v 938 4
v 939 8
v 940 17
v 941 7
v 942 15
v 943 15
v 944 28
v 945 16
v 946 18
v 947 29
v 948 14
v 949 13
v 950 31
v 951 12
v 952 14
v 953 25
v 954 12
v 955 22
v 956 21
v 957 7
v 958 33
v 959 24
v 960 1
v 961 7
v 962 9
v 963 6
v 964 23
v 965 10
v 966 6
v 967 21
v 968 20
v 969 37
v 970 2
v 971 3
v 972 9
v 973 23
v 974 1
v 975 26
v 976 27
v 977 19
v 978 22
v 979 29
v 980 11
v 981 28
v 982 5
v 983 13
v 984 10
v 985 6
v 986 2
v 987 0
v 988 30
v 989 17
